(set-info :category "industrial")
(set-info :status sat)
(declare-fun x01 () (_ BitVec 8))
(declare-fun x04 () (_ BitVec 8))
(declare-fun x05 () (_ BitVec 8))
(declare-fun x06 () (_ BitVec 8))
(declare-fun x07 () (_ BitVec 8))
(declare-fun x08 () (_ BitVec 8))
(declare-fun x10 () (_ BitVec 8))
(declare-fun x12 () (_ BitVec 8))
(declare-fun x14 () (_ BitVec 8))
(declare-fun x16 () (_ BitVec 8))
(declare-fun x17 () (_ BitVec 8))
(declare-fun x20 () (_ BitVec 8))
(declare-fun x23 () (_ BitVec 8))
(declare-fun x25 () (_ BitVec 8))
(declare-fun x27 () (_ BitVec 8))
(declare-fun x28 () (_ BitVec 8))
(declare-fun x30 () (_ BitVec 8))
(declare-fun x32 () (_ BitVec 8))
(declare-fun x33 () (_ BitVec 8))
(declare-fun x36 () (_ BitVec 8))
(declare-fun x37 () (_ BitVec 8))
(declare-fun x42 () (_ BitVec 8))
(declare-fun x44 () (_ BitVec 8))
(declare-fun x45 () (_ BitVec 8))
(declare-fun x47 () (_ BitVec 8))
(declare-fun x51 () (_ BitVec 8))
(declare-fun x52 () (_ BitVec 8))
(declare-fun x53 () (_ BitVec 8))
(declare-fun x55 () (_ BitVec 8))
(declare-fun x56 () (_ BitVec 8))
(declare-fun x58 () (_ BitVec 8))
(declare-fun x60 () (_ BitVec 8))
(declare-fun x61 () (_ BitVec 8))
(declare-fun x62 () (_ BitVec 8))
(declare-fun x63 () (_ BitVec 8))
(declare-fun x64 () (_ BitVec 8))
(declare-fun x65 () (_ BitVec 8))
(declare-fun x67 () (_ BitVec 8))
(declare-fun x68 () (_ BitVec 8))
(declare-fun x71 () (_ BitVec 8))
(declare-fun x72 () (_ BitVec 8))
(declare-fun x74 () (_ BitVec 8))
(declare-fun x76 () (_ BitVec 8))
(declare-fun x77 () (_ BitVec 8))
(declare-fun x80 () (_ BitVec 8))
(declare-fun x83 () (_ BitVec 8))
(declare-fun x85 () (_ BitVec 8))
(declare-fun x88 () (_ BitVec 8))
(assert (bvult x01 (_ bv9 8)))
(assert (bvult x04 (_ bv9 8)))
(assert (bvult x05 (_ bv9 8)))
(assert (bvult x06 (_ bv9 8)))
(assert (bvult x07 (_ bv9 8)))
(assert (bvult x08 (_ bv9 8)))
(assert (bvult x10 (_ bv9 8)))
(assert (bvult x12 (_ bv9 8)))
(assert (bvult x14 (_ bv9 8)))
(assert (bvult x16 (_ bv9 8)))
(assert (bvult x17 (_ bv9 8)))
(assert (bvult x20 (_ bv9 8)))
(assert (bvult x23 (_ bv9 8)))
(assert (bvult x25 (_ bv9 8)))
(assert (bvult x27 (_ bv9 8)))
(assert (bvult x28 (_ bv9 8)))
(assert (bvult x30 (_ bv9 8)))
(assert (bvult x32 (_ bv9 8)))
(assert (bvult x33 (_ bv9 8)))
(assert (bvult x36 (_ bv9 8)))
(assert (bvult x37 (_ bv9 8)))
(assert (bvult x42 (_ bv9 8)))
(assert (bvult x44 (_ bv9 8)))
(assert (bvult x45 (_ bv9 8)))
(assert (bvult x47 (_ bv9 8)))
(assert (bvult x51 (_ bv9 8)))
(assert (bvult x52 (_ bv9 8)))
(assert (bvult x53 (_ bv9 8)))
(assert (bvult x55 (_ bv9 8)))
(assert (bvult x56 (_ bv9 8)))
(assert (bvult x58 (_ bv9 8)))
(assert (bvult x60 (_ bv9 8)))
(assert (bvult x61 (_ bv9 8)))
(assert (bvult x62 (_ bv9 8)))
(assert (bvult x63 (_ bv9 8)))
(assert (bvult x64 (_ bv9 8)))
(assert (bvult x65 (_ bv9 8)))
(assert (bvult x67 (_ bv9 8)))
(assert (bvult x68 (_ bv9 8)))
(assert (bvult x71 (_ bv9 8)))
(assert (bvult x72 (_ bv9 8)))
(assert (bvult x74 (_ bv9 8)))
(assert (bvult x76 (_ bv9 8)))
(assert (bvult x77 (_ bv9 8)))
(assert (bvult x80 (_ bv9 8)))
(assert (bvult x83 (_ bv9 8)))
(assert (bvult x85 (_ bv9 8)))
(assert (bvult x88 (_ bv9 8)))
(assert (not (= (_ bv9 8) x01)))
(assert (not (= (_ bv9 8) (_ bv8 8))))
(assert (not (= (_ bv9 8) (_ bv5 8))))
(assert (not (= (_ bv9 8) x04)))
(assert (not (= (_ bv9 8) x05)))
(assert (not (= (_ bv9 8) x06)))
(assert (not (= (_ bv9 8) x07)))
(assert (not (= (_ bv9 8) x08)))
(assert (not (= x01 (_ bv8 8))))
(assert (not (= x01 (_ bv5 8))))
(assert (not (= x01 x04)))
(assert (not (= x01 x05)))
(assert (not (= x01 x06)))
(assert (not (= x01 x07)))
(assert (not (= x01 x08)))
(assert (not (= (_ bv8 8) (_ bv5 8))))
(assert (not (= (_ bv8 8) x04)))
(assert (not (= (_ bv8 8) x05)))
(assert (not (= (_ bv8 8) x06)))
(assert (not (= (_ bv8 8) x07)))
(assert (not (= (_ bv8 8) x08)))
(assert (not (= (_ bv5 8) x04)))
(assert (not (= (_ bv5 8) x05)))
(assert (not (= (_ bv5 8) x06)))
(assert (not (= (_ bv5 8) x07)))
(assert (not (= (_ bv5 8) x08)))
(assert (not (= x04 x05)))
(assert (not (= x04 x06)))
(assert (not (= x04 x07)))
(assert (not (= x04 x08)))
(assert (not (= x05 x06)))
(assert (not (= x05 x07)))
(assert (not (= x05 x08)))
(assert (not (= x06 x07)))
(assert (not (= x06 x08)))
(assert (not (= x07 x08)))
(assert (not (= x10 (_ bv6 8))))
(assert (not (= x10 x12)))
(assert (not (= x10 (_ bv2 8))))
(assert (not (= x10 x14)))
(assert (not (= x10 (_ bv4 8))))
(assert (not (= x10 x16)))
(assert (not (= x10 x17)))
(assert (not (= x10 (_ bv9 8))))
(assert (not (= (_ bv6 8) x12)))
(assert (not (= (_ bv6 8) (_ bv2 8))))
(assert (not (= (_ bv6 8) x14)))
(assert (not (= (_ bv6 8) (_ bv4 8))))
(assert (not (= (_ bv6 8) x16)))
(assert (not (= (_ bv6 8) x17)))
(assert (not (= (_ bv6 8) (_ bv9 8))))
(assert (not (= x12 (_ bv2 8))))
(assert (not (= x12 x14)))
(assert (not (= x12 (_ bv4 8))))
(assert (not (= x12 x16)))
(assert (not (= x12 x17)))
(assert (not (= x12 (_ bv9 8))))
(assert (not (= (_ bv2 8) x14)))
(assert (not (= (_ bv2 8) (_ bv4 8))))
(assert (not (= (_ bv2 8) x16)))
(assert (not (= (_ bv2 8) x17)))
(assert (not (= (_ bv2 8) (_ bv9 8))))
(assert (not (= x14 (_ bv4 8))))
(assert (not (= x14 x16)))
(assert (not (= x14 x17)))
(assert (not (= x14 (_ bv9 8))))
(assert (not (= (_ bv4 8) x16)))
(assert (not (= (_ bv4 8) x17)))
(assert (not (= (_ bv4 8) (_ bv9 8))))
(assert (not (= x16 x17)))
(assert (not (= x16 (_ bv9 8))))
(assert (not (= x17 (_ bv9 8))))
(assert (not (= x20 (_ bv3 8))))
(assert (not (= x20 (_ bv4 8))))
(assert (not (= x20 x23)))
(assert (not (= x20 (_ bv1 8))))
(assert (not (= x20 x25)))
(assert (not (= x20 (_ bv7 8))))
(assert (not (= x20 x27)))
(assert (not (= x20 x28)))
(assert (not (= (_ bv3 8) (_ bv4 8))))
(assert (not (= (_ bv3 8) x23)))
(assert (not (= (_ bv3 8) (_ bv1 8))))
(assert (not (= (_ bv3 8) x25)))
(assert (not (= (_ bv3 8) (_ bv7 8))))
(assert (not (= (_ bv3 8) x27)))
(assert (not (= (_ bv3 8) x28)))
(assert (not (= (_ bv4 8) x23)))
(assert (not (= (_ bv4 8) (_ bv1 8))))
(assert (not (= (_ bv4 8) x25)))
(assert (not (= (_ bv4 8) (_ bv7 8))))
(assert (not (= (_ bv4 8) x27)))
(assert (not (= (_ bv4 8) x28)))
(assert (not (= x23 (_ bv1 8))))
(assert (not (= x23 x25)))
(assert (not (= x23 (_ bv7 8))))
(assert (not (= x23 x27)))
(assert (not (= x23 x28)))
(assert (not (= (_ bv1 8) x25)))
(assert (not (= (_ bv1 8) (_ bv7 8))))
(assert (not (= (_ bv1 8) x27)))
(assert (not (= (_ bv1 8) x28)))
(assert (not (= x25 (_ bv7 8))))
(assert (not (= x25 x27)))
(assert (not (= x25 x28)))
(assert (not (= (_ bv7 8) x27)))
(assert (not (= (_ bv7 8) x28)))
(assert (not (= x27 x28)))
(assert (not (= x30 (_ bv8 8))))
(assert (not (= x30 x32)))
(assert (not (= x30 x33)))
(assert (not (= x30 (_ bv7 8))))
(assert (not (= x30 (_ bv9 8))))
(assert (not (= x30 x36)))
(assert (not (= x30 x37)))
(assert (not (= x30 (_ bv3 8))))
(assert (not (= (_ bv8 8) x32)))
(assert (not (= (_ bv8 8) x33)))
(assert (not (= (_ bv8 8) (_ bv7 8))))
(assert (not (= (_ bv8 8) (_ bv9 8))))
(assert (not (= (_ bv8 8) x36)))
(assert (not (= (_ bv8 8) x37)))
(assert (not (= (_ bv8 8) (_ bv3 8))))
(assert (not (= x32 x33)))
(assert (not (= x32 (_ bv7 8))))
(assert (not (= x32 (_ bv9 8))))
(assert (not (= x32 x36)))
(assert (not (= x32 x37)))
(assert (not (= x32 (_ bv3 8))))
(assert (not (= x33 (_ bv7 8))))
(assert (not (= x33 (_ bv9 8))))
(assert (not (= x33 x36)))
(assert (not (= x33 x37)))
(assert (not (= x33 (_ bv3 8))))
(assert (not (= (_ bv7 8) (_ bv9 8))))
(assert (not (= (_ bv7 8) x36)))
(assert (not (= (_ bv7 8) x37)))
(assert (not (= (_ bv7 8) (_ bv3 8))))
(assert (not (= (_ bv9 8) x36)))
(assert (not (= (_ bv9 8) x37)))
(assert (not (= (_ bv9 8) (_ bv3 8))))
(assert (not (= x36 x37)))
(assert (not (= x36 (_ bv3 8))))
(assert (not (= x37 (_ bv3 8))))
(assert (not (= (_ bv6 8) (_ bv1 8))))
(assert (not (= (_ bv6 8) x42)))
(assert (not (= (_ bv6 8) (_ bv8 8))))
(assert (not (= (_ bv6 8) x44)))
(assert (not (= (_ bv6 8) x45)))
(assert (not (= (_ bv6 8) (_ bv4 8))))
(assert (not (= (_ bv6 8) x47)))
(assert (not (= (_ bv6 8) (_ bv7 8))))
(assert (not (= (_ bv1 8) x42)))
(assert (not (= (_ bv1 8) (_ bv8 8))))
(assert (not (= (_ bv1 8) x44)))
(assert (not (= (_ bv1 8) x45)))
(assert (not (= (_ bv1 8) (_ bv4 8))))
(assert (not (= (_ bv1 8) x47)))
(assert (not (= (_ bv1 8) (_ bv7 8))))
(assert (not (= x42 (_ bv8 8))))
(assert (not (= x42 x44)))
(assert (not (= x42 x45)))
(assert (not (= x42 (_ bv4 8))))
(assert (not (= x42 x47)))
(assert (not (= x42 (_ bv7 8))))
(assert (not (= (_ bv8 8) x44)))
(assert (not (= (_ bv8 8) x45)))
(assert (not (= (_ bv8 8) (_ bv4 8))))
(assert (not (= (_ bv8 8) x47)))
(assert (not (= (_ bv8 8) (_ bv7 8))))
(assert (not (= x44 x45)))
(assert (not (= x44 (_ bv4 8))))
(assert (not (= x44 x47)))
(assert (not (= x44 (_ bv7 8))))
(assert (not (= x45 (_ bv4 8))))
(assert (not (= x45 x47)))
(assert (not (= x45 (_ bv7 8))))
(assert (not (= (_ bv4 8) x47)))
(assert (not (= (_ bv4 8) (_ bv7 8))))
(assert (not (= x47 (_ bv7 8))))
(assert (not (= (_ bv2 8) x51)))
(assert (not (= (_ bv2 8) x52)))
(assert (not (= (_ bv2 8) x53)))
(assert (not (= (_ bv2 8) (_ bv4 8))))
(assert (not (= (_ bv2 8) x55)))
(assert (not (= (_ bv2 8) x56)))
(assert (not (= (_ bv2 8) (_ bv5 8))))
(assert (not (= (_ bv2 8) x58)))
(assert (not (= x51 x52)))
(assert (not (= x51 x53)))
(assert (not (= x51 (_ bv4 8))))
(assert (not (= x51 x55)))
(assert (not (= x51 x56)))
(assert (not (= x51 (_ bv5 8))))
(assert (not (= x51 x58)))
(assert (not (= x52 x53)))
(assert (not (= x52 (_ bv4 8))))
(assert (not (= x52 x55)))
(assert (not (= x52 x56)))
(assert (not (= x52 (_ bv5 8))))
(assert (not (= x52 x58)))
(assert (not (= x53 (_ bv4 8))))
(assert (not (= x53 x55)))
(assert (not (= x53 x56)))
(assert (not (= x53 (_ bv5 8))))
(assert (not (= x53 x58)))
(assert (not (= (_ bv4 8) x55)))
(assert (not (= (_ bv4 8) x56)))
(assert (not (= (_ bv4 8) (_ bv5 8))))
(assert (not (= (_ bv4 8) x58)))
(assert (not (= x55 x56)))
(assert (not (= x55 (_ bv5 8))))
(assert (not (= x55 x58)))
(assert (not (= x56 (_ bv5 8))))
(assert (not (= x56 x58)))
(assert (not (= (_ bv5 8) x58)))
(assert (not (= x60 x61)))
(assert (not (= x60 x62)))
(assert (not (= x60 x63)))
(assert (not (= x60 x64)))
(assert (not (= x60 x65)))
(assert (not (= x60 (_ bv2 8))))
(assert (not (= x60 x67)))
(assert (not (= x60 x68)))
(assert (not (= x61 x62)))
(assert (not (= x61 x63)))
(assert (not (= x61 x64)))
(assert (not (= x61 x65)))
(assert (not (= x61 (_ bv2 8))))
(assert (not (= x61 x67)))
(assert (not (= x61 x68)))
(assert (not (= x62 x63)))
(assert (not (= x62 x64)))
(assert (not (= x62 x65)))
(assert (not (= x62 (_ bv2 8))))
(assert (not (= x62 x67)))
(assert (not (= x62 x68)))
(assert (not (= x63 x64)))
(assert (not (= x63 x65)))
(assert (not (= x63 (_ bv2 8))))
(assert (not (= x63 x67)))
(assert (not (= x63 x68)))
(assert (not (= x64 x65)))
(assert (not (= x64 (_ bv2 8))))
(assert (not (= x64 x67)))
(assert (not (= x64 x68)))
(assert (not (= x65 (_ bv2 8))))
(assert (not (= x65 x67)))
(assert (not (= x65 x68)))
(assert (not (= (_ bv2 8) x67)))
(assert (not (= (_ bv2 8) x68)))
(assert (not (= x67 x68)))
(assert (not (= (_ bv1 8) x71)))
(assert (not (= (_ bv1 8) x72)))
(assert (not (= (_ bv1 8) (_ bv6 8))))
(assert (not (= (_ bv1 8) x74)))
(assert (not (= (_ bv1 8) (_ bv3 8))))
(assert (not (= (_ bv1 8) x76)))
(assert (not (= (_ bv1 8) x77)))
(assert (not (= (_ bv1 8) (_ bv4 8))))
(assert (not (= x71 x72)))
(assert (not (= x71 (_ bv6 8))))
(assert (not (= x71 x74)))
(assert (not (= x71 (_ bv3 8))))
(assert (not (= x71 x76)))
(assert (not (= x71 x77)))
(assert (not (= x71 (_ bv4 8))))
(assert (not (= x72 (_ bv6 8))))
(assert (not (= x72 x74)))
(assert (not (= x72 (_ bv3 8))))
(assert (not (= x72 x76)))
(assert (not (= x72 x77)))
(assert (not (= x72 (_ bv4 8))))
(assert (not (= (_ bv6 8) x74)))
(assert (not (= (_ bv6 8) (_ bv3 8))))
(assert (not (= (_ bv6 8) x76)))
(assert (not (= (_ bv6 8) x77)))
(assert (not (= (_ bv6 8) (_ bv4 8))))
(assert (not (= x74 (_ bv3 8))))
(assert (not (= x74 x76)))
(assert (not (= x74 x77)))
(assert (not (= x74 (_ bv4 8))))
(assert (not (= (_ bv3 8) x76)))
(assert (not (= (_ bv3 8) x77)))
(assert (not (= (_ bv3 8) (_ bv4 8))))
(assert (not (= x76 x77)))
(assert (not (= x76 (_ bv4 8))))
(assert (not (= x77 (_ bv4 8))))
(assert (not (= x80 (_ bv7 8))))
(assert (not (= x80 (_ bv9 8))))
(assert (not (= x80 x83)))
(assert (not (= x80 (_ bv5 8))))
(assert (not (= x80 x85)))
(assert (not (= x80 (_ bv8 8))))
(assert (not (= x80 (_ bv1 8))))
(assert (not (= x80 x88)))
(assert (not (= (_ bv7 8) (_ bv9 8))))
(assert (not (= (_ bv7 8) x83)))
(assert (not (= (_ bv7 8) (_ bv5 8))))
(assert (not (= (_ bv7 8) x85)))
(assert (not (= (_ bv7 8) (_ bv8 8))))
(assert (not (= (_ bv7 8) (_ bv1 8))))
(assert (not (= (_ bv7 8) x88)))
(assert (not (= (_ bv9 8) x83)))
(assert (not (= (_ bv9 8) (_ bv5 8))))
(assert (not (= (_ bv9 8) x85)))
(assert (not (= (_ bv9 8) (_ bv8 8))))
(assert (not (= (_ bv9 8) (_ bv1 8))))
(assert (not (= (_ bv9 8) x88)))
(assert (not (= x83 (_ bv5 8))))
(assert (not (= x83 x85)))
(assert (not (= x83 (_ bv8 8))))
(assert (not (= x83 (_ bv1 8))))
(assert (not (= x83 x88)))
(assert (not (= (_ bv5 8) x85)))
(assert (not (= (_ bv5 8) (_ bv8 8))))
(assert (not (= (_ bv5 8) (_ bv1 8))))
(assert (not (= (_ bv5 8) x88)))
(assert (not (= x85 (_ bv8 8))))
(assert (not (= x85 (_ bv1 8))))
(assert (not (= x85 x88)))
(assert (not (= (_ bv8 8) (_ bv1 8))))
(assert (not (= (_ bv8 8) x88)))
(assert (not (= (_ bv1 8) x88)))
(assert (not (= (_ bv9 8) x10)))
(assert (not (= (_ bv9 8) x20)))
(assert (not (= (_ bv9 8) x30)))
(assert (not (= (_ bv9 8) (_ bv6 8))))
(assert (not (= (_ bv9 8) (_ bv2 8))))
(assert (not (= (_ bv9 8) x60)))
(assert (not (= (_ bv9 8) (_ bv1 8))))
(assert (not (= (_ bv9 8) x80)))
(assert (not (= x10 x20)))
(assert (not (= x10 x30)))
(assert (not (= x10 (_ bv6 8))))
(assert (not (= x10 (_ bv2 8))))
(assert (not (= x10 x60)))
(assert (not (= x10 (_ bv1 8))))
(assert (not (= x10 x80)))
(assert (not (= x20 x30)))
(assert (not (= x20 (_ bv6 8))))
(assert (not (= x20 (_ bv2 8))))
(assert (not (= x20 x60)))
(assert (not (= x20 (_ bv1 8))))
(assert (not (= x20 x80)))
(assert (not (= x30 (_ bv6 8))))
(assert (not (= x30 (_ bv2 8))))
(assert (not (= x30 x60)))
(assert (not (= x30 (_ bv1 8))))
(assert (not (= x30 x80)))
(assert (not (= (_ bv6 8) (_ bv2 8))))
(assert (not (= (_ bv6 8) x60)))
(assert (not (= (_ bv6 8) (_ bv1 8))))
(assert (not (= (_ bv6 8) x80)))
(assert (not (= (_ bv2 8) x60)))
(assert (not (= (_ bv2 8) (_ bv1 8))))
(assert (not (= (_ bv2 8) x80)))
(assert (not (= x60 (_ bv1 8))))
(assert (not (= x60 x80)))
(assert (not (= (_ bv1 8) x80)))
(assert (not (= x01 (_ bv6 8))))
(assert (not (= x01 (_ bv3 8))))
(assert (not (= x01 (_ bv8 8))))
(assert (not (= x01 (_ bv1 8))))
(assert (not (= x01 x51)))
(assert (not (= x01 x61)))
(assert (not (= x01 x71)))
(assert (not (= x01 (_ bv7 8))))
(assert (not (= (_ bv6 8) (_ bv3 8))))
(assert (not (= (_ bv6 8) (_ bv8 8))))
(assert (not (= (_ bv6 8) (_ bv1 8))))
(assert (not (= (_ bv6 8) x51)))
(assert (not (= (_ bv6 8) x61)))
(assert (not (= (_ bv6 8) x71)))
(assert (not (= (_ bv6 8) (_ bv7 8))))
(assert (not (= (_ bv3 8) (_ bv8 8))))
(assert (not (= (_ bv3 8) (_ bv1 8))))
(assert (not (= (_ bv3 8) x51)))
(assert (not (= (_ bv3 8) x61)))
(assert (not (= (_ bv3 8) x71)))
(assert (not (= (_ bv3 8) (_ bv7 8))))
(assert (not (= (_ bv8 8) (_ bv1 8))))
(assert (not (= (_ bv8 8) x51)))
(assert (not (= (_ bv8 8) x61)))
(assert (not (= (_ bv8 8) x71)))
(assert (not (= (_ bv8 8) (_ bv7 8))))
(assert (not (= (_ bv1 8) x51)))
(assert (not (= (_ bv1 8) x61)))
(assert (not (= (_ bv1 8) x71)))
(assert (not (= (_ bv1 8) (_ bv7 8))))
(assert (not (= x51 x61)))
(assert (not (= x51 x71)))
(assert (not (= x51 (_ bv7 8))))
(assert (not (= x61 x71)))
(assert (not (= x61 (_ bv7 8))))
(assert (not (= x71 (_ bv7 8))))
(assert (not (= (_ bv8 8) x12)))
(assert (not (= (_ bv8 8) (_ bv4 8))))
(assert (not (= (_ bv8 8) x32)))
(assert (not (= (_ bv8 8) x42)))
(assert (not (= (_ bv8 8) x52)))
(assert (not (= (_ bv8 8) x62)))
(assert (not (= (_ bv8 8) x72)))
(assert (not (= (_ bv8 8) (_ bv9 8))))
(assert (not (= x12 (_ bv4 8))))
(assert (not (= x12 x32)))
(assert (not (= x12 x42)))
(assert (not (= x12 x52)))
(assert (not (= x12 x62)))
(assert (not (= x12 x72)))
(assert (not (= x12 (_ bv9 8))))
(assert (not (= (_ bv4 8) x32)))
(assert (not (= (_ bv4 8) x42)))
(assert (not (= (_ bv4 8) x52)))
(assert (not (= (_ bv4 8) x62)))
(assert (not (= (_ bv4 8) x72)))
(assert (not (= (_ bv4 8) (_ bv9 8))))
(assert (not (= x32 x42)))
(assert (not (= x32 x52)))
(assert (not (= x32 x62)))
(assert (not (= x32 x72)))
(assert (not (= x32 (_ bv9 8))))
(assert (not (= x42 x52)))
(assert (not (= x42 x62)))
(assert (not (= x42 x72)))
(assert (not (= x42 (_ bv9 8))))
(assert (not (= x52 x62)))
(assert (not (= x52 x72)))
(assert (not (= x52 (_ bv9 8))))
(assert (not (= x62 x72)))
(assert (not (= x62 (_ bv9 8))))
(assert (not (= x72 (_ bv9 8))))
(assert (not (= (_ bv5 8) (_ bv2 8))))
(assert (not (= (_ bv5 8) x23)))
(assert (not (= (_ bv5 8) x33)))
(assert (not (= (_ bv5 8) (_ bv8 8))))
(assert (not (= (_ bv5 8) x53)))
(assert (not (= (_ bv5 8) x63)))
(assert (not (= (_ bv5 8) (_ bv6 8))))
(assert (not (= (_ bv5 8) x83)))
(assert (not (= (_ bv2 8) x23)))
(assert (not (= (_ bv2 8) x33)))
(assert (not (= (_ bv2 8) (_ bv8 8))))
(assert (not (= (_ bv2 8) x53)))
(assert (not (= (_ bv2 8) x63)))
(assert (not (= (_ bv2 8) (_ bv6 8))))
(assert (not (= (_ bv2 8) x83)))
(assert (not (= x23 x33)))
(assert (not (= x23 (_ bv8 8))))
(assert (not (= x23 x53)))
(assert (not (= x23 x63)))
(assert (not (= x23 (_ bv6 8))))
(assert (not (= x23 x83)))
(assert (not (= x33 (_ bv8 8))))
(assert (not (= x33 x53)))
(assert (not (= x33 x63)))
(assert (not (= x33 (_ bv6 8))))
(assert (not (= x33 x83)))
(assert (not (= (_ bv8 8) x53)))
(assert (not (= (_ bv8 8) x63)))
(assert (not (= (_ bv8 8) (_ bv6 8))))
(assert (not (= (_ bv8 8) x83)))
(assert (not (= x53 x63)))
(assert (not (= x53 (_ bv6 8))))
(assert (not (= x53 x83)))
(assert (not (= x63 (_ bv6 8))))
(assert (not (= x63 x83)))
(assert (not (= (_ bv6 8) x83)))
(assert (not (= x04 x14)))
(assert (not (= x04 (_ bv1 8))))
(assert (not (= x04 (_ bv7 8))))
(assert (not (= x04 x44)))
(assert (not (= x04 (_ bv4 8))))
(assert (not (= x04 x64)))
(assert (not (= x04 x74)))
(assert (not (= x04 (_ bv5 8))))
(assert (not (= x14 (_ bv1 8))))
(assert (not (= x14 (_ bv7 8))))
(assert (not (= x14 x44)))
(assert (not (= x14 (_ bv4 8))))
(assert (not (= x14 x64)))
(assert (not (= x14 x74)))
(assert (not (= x14 (_ bv5 8))))
(assert (not (= (_ bv1 8) (_ bv7 8))))
(assert (not (= (_ bv1 8) x44)))
(assert (not (= (_ bv1 8) (_ bv4 8))))
(assert (not (= (_ bv1 8) x64)))
(assert (not (= (_ bv1 8) x74)))
(assert (not (= (_ bv1 8) (_ bv5 8))))
(assert (not (= (_ bv7 8) x44)))
(assert (not (= (_ bv7 8) (_ bv4 8))))
(assert (not (= (_ bv7 8) x64)))
(assert (not (= (_ bv7 8) x74)))
(assert (not (= (_ bv7 8) (_ bv5 8))))
(assert (not (= x44 (_ bv4 8))))
(assert (not (= x44 x64)))
(assert (not (= x44 x74)))
(assert (not (= x44 (_ bv5 8))))
(assert (not (= (_ bv4 8) x64)))
(assert (not (= (_ bv4 8) x74)))
(assert (not (= (_ bv4 8) (_ bv5 8))))
(assert (not (= x64 x74)))
(assert (not (= x64 (_ bv5 8))))
(assert (not (= x74 (_ bv5 8))))
(assert (not (= x05 (_ bv4 8))))
(assert (not (= x05 x25)))
(assert (not (= x05 (_ bv9 8))))
(assert (not (= x05 x45)))
(assert (not (= x05 x55)))
(assert (not (= x05 x65)))
(assert (not (= x05 (_ bv3 8))))
(assert (not (= x05 x85)))
(assert (not (= (_ bv4 8) x25)))
(assert (not (= (_ bv4 8) (_ bv9 8))))
(assert (not (= (_ bv4 8) x45)))
(assert (not (= (_ bv4 8) x55)))
(assert (not (= (_ bv4 8) x65)))
(assert (not (= (_ bv4 8) (_ bv3 8))))
(assert (not (= (_ bv4 8) x85)))
(assert (not (= x25 (_ bv9 8))))
(assert (not (= x25 x45)))
(assert (not (= x25 x55)))
(assert (not (= x25 x65)))
(assert (not (= x25 (_ bv3 8))))
(assert (not (= x25 x85)))
(assert (not (= (_ bv9 8) x45)))
(assert (not (= (_ bv9 8) x55)))
(assert (not (= (_ bv9 8) x65)))
(assert (not (= (_ bv9 8) (_ bv3 8))))
(assert (not (= (_ bv9 8) x85)))
(assert (not (= x45 x55)))
(assert (not (= x45 x65)))
(assert (not (= x45 (_ bv3 8))))
(assert (not (= x45 x85)))
(assert (not (= x55 x65)))
(assert (not (= x55 (_ bv3 8))))
(assert (not (= x55 x85)))
(assert (not (= x65 (_ bv3 8))))
(assert (not (= x65 x85)))
(assert (not (= (_ bv3 8) x85)))
(assert (not (= x06 x16)))
(assert (not (= x06 (_ bv7 8))))
(assert (not (= x06 x36)))
(assert (not (= x06 (_ bv4 8))))
(assert (not (= x06 x56)))
(assert (not (= x06 (_ bv2 8))))
(assert (not (= x06 x76)))
(assert (not (= x06 (_ bv8 8))))
(assert (not (= x16 (_ bv7 8))))
(assert (not (= x16 x36)))
(assert (not (= x16 (_ bv4 8))))
(assert (not (= x16 x56)))
(assert (not (= x16 (_ bv2 8))))
(assert (not (= x16 x76)))
(assert (not (= x16 (_ bv8 8))))
(assert (not (= (_ bv7 8) x36)))
(assert (not (= (_ bv7 8) (_ bv4 8))))
(assert (not (= (_ bv7 8) x56)))
(assert (not (= (_ bv7 8) (_ bv2 8))))
(assert (not (= (_ bv7 8) x76)))
(assert (not (= (_ bv7 8) (_ bv8 8))))
(assert (not (= x36 (_ bv4 8))))
(assert (not (= x36 x56)))
(assert (not (= x36 (_ bv2 8))))
(assert (not (= x36 x76)))
(assert (not (= x36 (_ bv8 8))))
(assert (not (= (_ bv4 8) x56)))
(assert (not (= (_ bv4 8) (_ bv2 8))))
(assert (not (= (_ bv4 8) x76)))
(assert (not (= (_ bv4 8) (_ bv8 8))))
(assert (not (= x56 (_ bv2 8))))
(assert (not (= x56 x76)))
(assert (not (= x56 (_ bv8 8))))
(assert (not (= (_ bv2 8) x76)))
(assert (not (= (_ bv2 8) (_ bv8 8))))
(assert (not (= x76 (_ bv8 8))))
(assert (not (= x07 x17)))
(assert (not (= x07 x27)))
(assert (not (= x07 x37)))
(assert (not (= x07 x47)))
(assert (not (= x07 (_ bv5 8))))
(assert (not (= x07 x67)))
(assert (not (= x07 x77)))
(assert (not (= x07 (_ bv1 8))))
(assert (not (= x17 x27)))
(assert (not (= x17 x37)))
(assert (not (= x17 x47)))
(assert (not (= x17 (_ bv5 8))))
(assert (not (= x17 x67)))
(assert (not (= x17 x77)))
(assert (not (= x17 (_ bv1 8))))
(assert (not (= x27 x37)))
(assert (not (= x27 x47)))
(assert (not (= x27 (_ bv5 8))))
(assert (not (= x27 x67)))
(assert (not (= x27 x77)))
(assert (not (= x27 (_ bv1 8))))
(assert (not (= x37 x47)))
(assert (not (= x37 (_ bv5 8))))
(assert (not (= x37 x67)))
(assert (not (= x37 x77)))
(assert (not (= x37 (_ bv1 8))))
(assert (not (= x47 (_ bv5 8))))
(assert (not (= x47 x67)))
(assert (not (= x47 x77)))
(assert (not (= x47 (_ bv1 8))))
(assert (not (= (_ bv5 8) x67)))
(assert (not (= (_ bv5 8) x77)))
(assert (not (= (_ bv5 8) (_ bv1 8))))
(assert (not (= x67 x77)))
(assert (not (= x67 (_ bv1 8))))
(assert (not (= x77 (_ bv1 8))))
(assert (not (= x08 (_ bv9 8))))
(assert (not (= x08 x28)))
(assert (not (= x08 (_ bv3 8))))
(assert (not (= x08 (_ bv7 8))))
(assert (not (= x08 x58)))
(assert (not (= x08 x68)))
(assert (not (= x08 (_ bv4 8))))
(assert (not (= x08 x88)))
(assert (not (= (_ bv9 8) x28)))
(assert (not (= (_ bv9 8) (_ bv3 8))))
(assert (not (= (_ bv9 8) (_ bv7 8))))
(assert (not (= (_ bv9 8) x58)))
(assert (not (= (_ bv9 8) x68)))
(assert (not (= (_ bv9 8) (_ bv4 8))))
(assert (not (= (_ bv9 8) x88)))
(assert (not (= x28 (_ bv3 8))))
(assert (not (= x28 (_ bv7 8))))
(assert (not (= x28 x58)))
(assert (not (= x28 x68)))
(assert (not (= x28 (_ bv4 8))))
(assert (not (= x28 x88)))
(assert (not (= (_ bv3 8) (_ bv7 8))))
(assert (not (= (_ bv3 8) x58)))
(assert (not (= (_ bv3 8) x68)))
(assert (not (= (_ bv3 8) (_ bv4 8))))
(assert (not (= (_ bv3 8) x88)))
(assert (not (= (_ bv7 8) x58)))
(assert (not (= (_ bv7 8) x68)))
(assert (not (= (_ bv7 8) (_ bv4 8))))
(assert (not (= (_ bv7 8) x88)))
(assert (not (= x58 x68)))
(assert (not (= x58 (_ bv4 8))))
(assert (not (= x58 x88)))
(assert (not (= x68 (_ bv4 8))))
(assert (not (= x68 x88)))
(assert (not (= (_ bv4 8) x88)))
(assert (not (= (_ bv9 8) x01)))
(assert (not (= (_ bv9 8) (_ bv8 8))))
(assert (not (= (_ bv9 8) x10)))
(assert (not (= (_ bv9 8) (_ bv6 8))))
(assert (not (= (_ bv9 8) x12)))
(assert (not (= (_ bv9 8) x20)))
(assert (not (= (_ bv9 8) (_ bv3 8))))
(assert (not (= (_ bv9 8) (_ bv4 8))))
(assert (not (= x01 (_ bv8 8))))
(assert (not (= x01 x10)))
(assert (not (= x01 (_ bv6 8))))
(assert (not (= x01 x12)))
(assert (not (= x01 x20)))
(assert (not (= x01 (_ bv3 8))))
(assert (not (= x01 (_ bv4 8))))
(assert (not (= (_ bv8 8) x10)))
(assert (not (= (_ bv8 8) (_ bv6 8))))
(assert (not (= (_ bv8 8) x12)))
(assert (not (= (_ bv8 8) x20)))
(assert (not (= (_ bv8 8) (_ bv3 8))))
(assert (not (= (_ bv8 8) (_ bv4 8))))
(assert (not (= x10 (_ bv6 8))))
(assert (not (= x10 x12)))
(assert (not (= x10 x20)))
(assert (not (= x10 (_ bv3 8))))
(assert (not (= x10 (_ bv4 8))))
(assert (not (= (_ bv6 8) x12)))
(assert (not (= (_ bv6 8) x20)))
(assert (not (= (_ bv6 8) (_ bv3 8))))
(assert (not (= (_ bv6 8) (_ bv4 8))))
(assert (not (= x12 x20)))
(assert (not (= x12 (_ bv3 8))))
(assert (not (= x12 (_ bv4 8))))
(assert (not (= x20 (_ bv3 8))))
(assert (not (= x20 (_ bv4 8))))
(assert (not (= (_ bv3 8) (_ bv4 8))))
(assert (not (= (_ bv5 8) x04)))
(assert (not (= (_ bv5 8) x05)))
(assert (not (= (_ bv5 8) (_ bv2 8))))
(assert (not (= (_ bv5 8) x14)))
(assert (not (= (_ bv5 8) (_ bv4 8))))
(assert (not (= (_ bv5 8) x23)))
(assert (not (= (_ bv5 8) (_ bv1 8))))
(assert (not (= (_ bv5 8) x25)))
(assert (not (= x04 x05)))
(assert (not (= x04 (_ bv2 8))))
(assert (not (= x04 x14)))
(assert (not (= x04 (_ bv4 8))))
(assert (not (= x04 x23)))
(assert (not (= x04 (_ bv1 8))))
(assert (not (= x04 x25)))
(assert (not (= x05 (_ bv2 8))))
(assert (not (= x05 x14)))
(assert (not (= x05 (_ bv4 8))))
(assert (not (= x05 x23)))
(assert (not (= x05 (_ bv1 8))))
(assert (not (= x05 x25)))
(assert (not (= (_ bv2 8) x14)))
(assert (not (= (_ bv2 8) (_ bv4 8))))
(assert (not (= (_ bv2 8) x23)))
(assert (not (= (_ bv2 8) (_ bv1 8))))
(assert (not (= (_ bv2 8) x25)))
(assert (not (= x14 (_ bv4 8))))
(assert (not (= x14 x23)))
(assert (not (= x14 (_ bv1 8))))
(assert (not (= x14 x25)))
(assert (not (= (_ bv4 8) x23)))
(assert (not (= (_ bv4 8) (_ bv1 8))))
(assert (not (= (_ bv4 8) x25)))
(assert (not (= x23 (_ bv1 8))))
(assert (not (= x23 x25)))
(assert (not (= (_ bv1 8) x25)))
(assert (not (= x06 x07)))
(assert (not (= x06 x08)))
(assert (not (= x06 x16)))
(assert (not (= x06 x17)))
(assert (not (= x06 (_ bv9 8))))
(assert (not (= x06 (_ bv7 8))))
(assert (not (= x06 x27)))
(assert (not (= x06 x28)))
(assert (not (= x07 x08)))
(assert (not (= x07 x16)))
(assert (not (= x07 x17)))
(assert (not (= x07 (_ bv9 8))))
(assert (not (= x07 (_ bv7 8))))
(assert (not (= x07 x27)))
(assert (not (= x07 x28)))
(assert (not (= x08 x16)))
(assert (not (= x08 x17)))
(assert (not (= x08 (_ bv9 8))))
(assert (not (= x08 (_ bv7 8))))
(assert (not (= x08 x27)))
(assert (not (= x08 x28)))
(assert (not (= x16 x17)))
(assert (not (= x16 (_ bv9 8))))
(assert (not (= x16 (_ bv7 8))))
(assert (not (= x16 x27)))
(assert (not (= x16 x28)))
(assert (not (= x17 (_ bv9 8))))
(assert (not (= x17 (_ bv7 8))))
(assert (not (= x17 x27)))
(assert (not (= x17 x28)))
(assert (not (= (_ bv9 8) (_ bv7 8))))
(assert (not (= (_ bv9 8) x27)))
(assert (not (= (_ bv9 8) x28)))
(assert (not (= (_ bv7 8) x27)))
(assert (not (= (_ bv7 8) x28)))
(assert (not (= x27 x28)))
(assert (not (= x30 (_ bv8 8))))
(assert (not (= x30 x32)))
(assert (not (= x30 (_ bv6 8))))
(assert (not (= x30 (_ bv1 8))))
(assert (not (= x30 x42)))
(assert (not (= x30 (_ bv2 8))))
(assert (not (= x30 x51)))
(assert (not (= x30 x52)))
(assert (not (= (_ bv8 8) x32)))
(assert (not (= (_ bv8 8) (_ bv6 8))))
(assert (not (= (_ bv8 8) (_ bv1 8))))
(assert (not (= (_ bv8 8) x42)))
(assert (not (= (_ bv8 8) (_ bv2 8))))
(assert (not (= (_ bv8 8) x51)))
(assert (not (= (_ bv8 8) x52)))
(assert (not (= x32 (_ bv6 8))))
(assert (not (= x32 (_ bv1 8))))
(assert (not (= x32 x42)))
(assert (not (= x32 (_ bv2 8))))
(assert (not (= x32 x51)))
(assert (not (= x32 x52)))
(assert (not (= (_ bv6 8) (_ bv1 8))))
(assert (not (= (_ bv6 8) x42)))
(assert (not (= (_ bv6 8) (_ bv2 8))))
(assert (not (= (_ bv6 8) x51)))
(assert (not (= (_ bv6 8) x52)))
(assert (not (= (_ bv1 8) x42)))
(assert (not (= (_ bv1 8) (_ bv2 8))))
(assert (not (= (_ bv1 8) x51)))
(assert (not (= (_ bv1 8) x52)))
(assert (not (= x42 (_ bv2 8))))
(assert (not (= x42 x51)))
(assert (not (= x42 x52)))
(assert (not (= (_ bv2 8) x51)))
(assert (not (= (_ bv2 8) x52)))
(assert (not (= x51 x52)))
(assert (not (= x33 (_ bv7 8))))
(assert (not (= x33 (_ bv9 8))))
(assert (not (= x33 (_ bv8 8))))
(assert (not (= x33 x44)))
(assert (not (= x33 x45)))
(assert (not (= x33 x53)))
(assert (not (= x33 (_ bv4 8))))
(assert (not (= x33 x55)))
(assert (not (= (_ bv7 8) (_ bv9 8))))
(assert (not (= (_ bv7 8) (_ bv8 8))))
(assert (not (= (_ bv7 8) x44)))
(assert (not (= (_ bv7 8) x45)))
(assert (not (= (_ bv7 8) x53)))
(assert (not (= (_ bv7 8) (_ bv4 8))))
(assert (not (= (_ bv7 8) x55)))
(assert (not (= (_ bv9 8) (_ bv8 8))))
(assert (not (= (_ bv9 8) x44)))
(assert (not (= (_ bv9 8) x45)))
(assert (not (= (_ bv9 8) x53)))
(assert (not (= (_ bv9 8) (_ bv4 8))))
(assert (not (= (_ bv9 8) x55)))
(assert (not (= (_ bv8 8) x44)))
(assert (not (= (_ bv8 8) x45)))
(assert (not (= (_ bv8 8) x53)))
(assert (not (= (_ bv8 8) (_ bv4 8))))
(assert (not (= (_ bv8 8) x55)))
(assert (not (= x44 x45)))
(assert (not (= x44 x53)))
(assert (not (= x44 (_ bv4 8))))
(assert (not (= x44 x55)))
(assert (not (= x45 x53)))
(assert (not (= x45 (_ bv4 8))))
(assert (not (= x45 x55)))
(assert (not (= x53 (_ bv4 8))))
(assert (not (= x53 x55)))
(assert (not (= (_ bv4 8) x55)))
(assert (not (= x36 x37)))
(assert (not (= x36 (_ bv3 8))))
(assert (not (= x36 (_ bv4 8))))
(assert (not (= x36 x47)))
(assert (not (= x36 (_ bv7 8))))
(assert (not (= x36 x56)))
(assert (not (= x36 (_ bv5 8))))
(assert (not (= x36 x58)))
(assert (not (= x37 (_ bv3 8))))
(assert (not (= x37 (_ bv4 8))))
(assert (not (= x37 x47)))
(assert (not (= x37 (_ bv7 8))))
(assert (not (= x37 x56)))
(assert (not (= x37 (_ bv5 8))))
(assert (not (= x37 x58)))
(assert (not (= (_ bv3 8) (_ bv4 8))))
(assert (not (= (_ bv3 8) x47)))
(assert (not (= (_ bv3 8) (_ bv7 8))))
(assert (not (= (_ bv3 8) x56)))
(assert (not (= (_ bv3 8) (_ bv5 8))))
(assert (not (= (_ bv3 8) x58)))
(assert (not (= (_ bv4 8) x47)))
(assert (not (= (_ bv4 8) (_ bv7 8))))
(assert (not (= (_ bv4 8) x56)))
(assert (not (= (_ bv4 8) (_ bv5 8))))
(assert (not (= (_ bv4 8) x58)))
(assert (not (= x47 (_ bv7 8))))
(assert (not (= x47 x56)))
(assert (not (= x47 (_ bv5 8))))
(assert (not (= x47 x58)))
(assert (not (= (_ bv7 8) x56)))
(assert (not (= (_ bv7 8) (_ bv5 8))))
(assert (not (= (_ bv7 8) x58)))
(assert (not (= x56 (_ bv5 8))))
(assert (not (= x56 x58)))
(assert (not (= (_ bv5 8) x58)))
(assert (not (= x60 x61)))
(assert (not (= x60 x62)))
(assert (not (= x60 (_ bv1 8))))
(assert (not (= x60 x71)))
(assert (not (= x60 x72)))
(assert (not (= x60 x80)))
(assert (not (= x60 (_ bv7 8))))
(assert (not (= x60 (_ bv9 8))))
(assert (not (= x61 x62)))
(assert (not (= x61 (_ bv1 8))))
(assert (not (= x61 x71)))
(assert (not (= x61 x72)))
(assert (not (= x61 x80)))
(assert (not (= x61 (_ bv7 8))))
(assert (not (= x61 (_ bv9 8))))
(assert (not (= x62 (_ bv1 8))))
(assert (not (= x62 x71)))
(assert (not (= x62 x72)))
(assert (not (= x62 x80)))
(assert (not (= x62 (_ bv7 8))))
(assert (not (= x62 (_ bv9 8))))
(assert (not (= (_ bv1 8) x71)))
(assert (not (= (_ bv1 8) x72)))
(assert (not (= (_ bv1 8) x80)))
(assert (not (= (_ bv1 8) (_ bv7 8))))
(assert (not (= (_ bv1 8) (_ bv9 8))))
(assert (not (= x71 x72)))
(assert (not (= x71 x80)))
(assert (not (= x71 (_ bv7 8))))
(assert (not (= x71 (_ bv9 8))))
(assert (not (= x72 x80)))
(assert (not (= x72 (_ bv7 8))))
(assert (not (= x72 (_ bv9 8))))
(assert (not (= x80 (_ bv7 8))))
(assert (not (= x80 (_ bv9 8))))
(assert (not (= (_ bv7 8) (_ bv9 8))))
(assert (not (= x63 x64)))
(assert (not (= x63 x65)))
(assert (not (= x63 (_ bv6 8))))
(assert (not (= x63 x74)))
(assert (not (= x63 (_ bv3 8))))
(assert (not (= x63 x83)))
(assert (not (= x63 (_ bv5 8))))
(assert (not (= x63 x85)))
(assert (not (= x64 x65)))
(assert (not (= x64 (_ bv6 8))))
(assert (not (= x64 x74)))
(assert (not (= x64 (_ bv3 8))))
(assert (not (= x64 x83)))
(assert (not (= x64 (_ bv5 8))))
(assert (not (= x64 x85)))
(assert (not (= x65 (_ bv6 8))))
(assert (not (= x65 x74)))
(assert (not (= x65 (_ bv3 8))))
(assert (not (= x65 x83)))
(assert (not (= x65 (_ bv5 8))))
(assert (not (= x65 x85)))
(assert (not (= (_ bv6 8) x74)))
(assert (not (= (_ bv6 8) (_ bv3 8))))
(assert (not (= (_ bv6 8) x83)))
(assert (not (= (_ bv6 8) (_ bv5 8))))
(assert (not (= (_ bv6 8) x85)))
(assert (not (= x74 (_ bv3 8))))
(assert (not (= x74 x83)))
(assert (not (= x74 (_ bv5 8))))
(assert (not (= x74 x85)))
(assert (not (= (_ bv3 8) x83)))
(assert (not (= (_ bv3 8) (_ bv5 8))))
(assert (not (= (_ bv3 8) x85)))
(assert (not (= x83 (_ bv5 8))))
(assert (not (= x83 x85)))
(assert (not (= (_ bv5 8) x85)))
(assert (not (= (_ bv2 8) x67)))
(assert (not (= (_ bv2 8) x68)))
(assert (not (= (_ bv2 8) x76)))
(assert (not (= (_ bv2 8) x77)))
(assert (not (= (_ bv2 8) (_ bv4 8))))
(assert (not (= (_ bv2 8) (_ bv8 8))))
(assert (not (= (_ bv2 8) (_ bv1 8))))
(assert (not (= (_ bv2 8) x88)))
(assert (not (= x67 x68)))
(assert (not (= x67 x76)))
(assert (not (= x67 x77)))
(assert (not (= x67 (_ bv4 8))))
(assert (not (= x67 (_ bv8 8))))
(assert (not (= x67 (_ bv1 8))))
(assert (not (= x67 x88)))
(assert (not (= x68 x76)))
(assert (not (= x68 x77)))
(assert (not (= x68 (_ bv4 8))))
(assert (not (= x68 (_ bv8 8))))
(assert (not (= x68 (_ bv1 8))))
(assert (not (= x68 x88)))
(assert (not (= x76 x77)))
(assert (not (= x76 (_ bv4 8))))
(assert (not (= x76 (_ bv8 8))))
(assert (not (= x76 (_ bv1 8))))
(assert (not (= x76 x88)))
(assert (not (= x77 (_ bv4 8))))
(assert (not (= x77 (_ bv8 8))))
(assert (not (= x77 (_ bv1 8))))
(assert (not (= x77 x88)))
(assert (not (= (_ bv4 8) (_ bv8 8))))
(assert (not (= (_ bv4 8) (_ bv1 8))))
(assert (not (= (_ bv4 8) x88)))
(assert (not (= (_ bv8 8) (_ bv1 8))))
(assert (not (= (_ bv8 8) x88)))
(assert (not (= (_ bv1 8) x88)))
(check-sat)
(exit)
